c Standarized MaxSat Instance
c{
c "sha1sum": "daddc625ea21f25d7ffb6a34dff17eda36bb1182",
c "nvars": 64,
c "ncls": 1408,
c "nhards": 0,
c "nhard_len_stats":
c    { "min": 0, "max": 0, "ave": 0.00,
c      "stddev": 0.00 },
c "nsofts": 1408,
c "nsoft_len_stats":
c    { "min": 2, "max": 2, "ave": 2.00,
c      "stddev": 0.00 },
c "nsoft_wts": 1,
c "soft_wt_stats":
c    { "min": 1, "max": 1, "ave": 1.00,
c      "stddev": 0.00 }
c}
c------------------------------------------------------------
c File:  hamming6-4.clq
c
c Source: Panos Pardalos pardalos@math.ufl.edu
c
c Reference: hamminga-b is a Hamming graph on a-bit words with
c            an edge if and only if the two words are at least
c            hamming distance b apart
c
p wcnf 64 1408 1409
1 1 16 0
1 -1 -16 0
1 1 24 0
1 -1 -24 0
1 1 28 0
1 -1 -28 0
1 1 30 0
1 -1 -30 0
1 1 31 0
1 -1 -31 0
1 1 32 0
1 -1 -32 0
1 1 40 0
1 -1 -40 0
1 1 44 0
1 -1 -44 0
1 1 46 0
1 -1 -46 0
1 1 47 0
1 -1 -47 0
1 1 48 0
1 -1 -48 0
1 1 52 0
1 -1 -52 0
1 1 54 0
1 -1 -54 0
1 1 55 0
1 -1 -55 0
1 1 56 0
1 -1 -56 0
1 1 58 0
1 -1 -58 0
1 1 59 0
1 -1 -59 0
1 1 60 0
1 -1 -60 0
1 1 61 0
1 -1 -61 0
1 1 62 0
1 -1 -62 0
1 1 63 0
1 -1 -63 0
1 1 64 0
1 -1 -64 0
1 2 15 0
1 -2 -15 0
1 2 23 0
1 -2 -23 0
1 2 27 0
1 -2 -27 0
1 2 29 0
1 -2 -29 0
1 2 31 0
1 -2 -31 0
1 2 32 0
1 -2 -32 0
1 2 39 0
1 -2 -39 0
1 2 43 0
1 -2 -43 0
1 2 45 0
1 -2 -45 0
1 2 47 0
1 -2 -47 0
1 2 48 0
1 -2 -48 0
1 2 51 0
1 -2 -51 0
1 2 53 0
1 -2 -53 0
1 2 55 0
1 -2 -55 0
1 2 56 0
1 -2 -56 0
1 2 57 0
1 -2 -57 0
1 2 59 0
1 -2 -59 0
1 2 60 0
1 -2 -60 0
1 2 61 0
1 -2 -61 0
1 2 62 0
1 -2 -62 0
1 2 63 0
1 -2 -63 0
1 2 64 0
1 -2 -64 0
1 3 14 0
1 -3 -14 0
1 3 22 0
1 -3 -22 0
1 3 26 0
1 -3 -26 0
1 3 29 0
1 -3 -29 0
1 3 30 0
1 -3 -30 0
1 3 32 0
1 -3 -32 0
1 3 38 0
1 -3 -38 0
1 3 42 0
1 -3 -42 0
1 3 45 0
1 -3 -45 0
1 3 46 0
1 -3 -46 0
1 3 48 0
1 -3 -48 0
1 3 50 0
1 -3 -50 0
1 3 53 0
1 -3 -53 0
1 3 54 0
1 -3 -54 0
1 3 56 0
1 -3 -56 0
1 3 57 0
1 -3 -57 0
1 3 58 0
1 -3 -58 0
1 3 60 0
1 -3 -60 0
1 3 61 0
1 -3 -61 0
1 3 62 0
1 -3 -62 0
1 3 63 0
1 -3 -63 0
1 3 64 0
1 -3 -64 0
1 4 13 0
1 -4 -13 0
1 4 21 0
1 -4 -21 0
1 4 25 0
1 -4 -25 0
1 4 29 0
1 -4 -29 0
1 4 30 0
1 -4 -30 0
1 4 31 0
1 -4 -31 0
1 4 37 0
1 -4 -37 0
1 4 41 0
1 -4 -41 0
1 4 45 0
1 -4 -45 0
1 4 46 0
1 -4 -46 0
1 4 47 0
1 -4 -47 0
1 4 49 0
1 -4 -49 0
1 4 53 0
1 -4 -53 0
1 4 54 0
1 -4 -54 0
1 4 55 0
1 -4 -55 0
1 4 57 0
1 -4 -57 0
1 4 58 0
1 -4 -58 0
1 4 59 0
1 -4 -59 0
1 4 61 0
1 -4 -61 0
1 4 62 0
1 -4 -62 0
1 4 63 0
1 -4 -63 0
1 4 64 0
1 -4 -64 0
1 5 12 0
1 -5 -12 0
1 5 20 0
1 -5 -20 0
1 5 26 0
1 -5 -26 0
1 5 27 0
1 -5 -27 0
1 5 28 0
1 -5 -28 0
1 5 32 0
1 -5 -32 0
1 5 36 0
1 -5 -36 0
1 5 42 0
1 -5 -42 0
1 5 43 0
1 -5 -43 0
1 5 44 0
1 -5 -44 0
1 5 48 0
1 -5 -48 0
1 5 50 0
1 -5 -50 0
1 5 51 0
1 -5 -51 0
1 5 52 0
1 -5 -52 0
1 5 56 0
1 -5 -56 0
1 5 57 0
1 -5 -57 0
1 5 58 0
1 -5 -58 0
1 5 59 0
1 -5 -59 0
1 5 60 0
1 -5 -60 0
1 5 62 0
1 -5 -62 0
1 5 63 0
1 -5 -63 0
1 5 64 0
1 -5 -64 0
1 6 11 0
1 -6 -11 0
1 6 19 0
1 -6 -19 0
1 6 25 0
1 -6 -25 0
1 6 27 0
1 -6 -27 0
1 6 28 0
1 -6 -28 0
1 6 31 0
1 -6 -31 0
1 6 35 0
1 -6 -35 0
1 6 41 0
1 -6 -41 0
1 6 43 0
1 -6 -43 0
1 6 44 0
1 -6 -44 0
1 6 47 0
1 -6 -47 0
1 6 49 0
1 -6 -49 0
1 6 51 0
1 -6 -51 0
1 6 52 0
1 -6 -52 0
1 6 55 0
1 -6 -55 0
1 6 57 0
1 -6 -57 0
1 6 58 0
1 -6 -58 0
1 6 59 0
1 -6 -59 0
1 6 60 0
1 -6 -60 0
1 6 61 0
1 -6 -61 0
1 6 63 0
1 -6 -63 0
1 6 64 0
1 -6 -64 0
1 7 10 0
1 -7 -10 0
1 7 18 0
1 -7 -18 0
1 7 25 0
1 -7 -25 0
1 7 26 0
1 -7 -26 0
1 7 28 0
1 -7 -28 0
1 7 30 0
1 -7 -30 0
1 7 34 0
1 -7 -34 0
1 7 41 0
1 -7 -41 0
1 7 42 0
1 -7 -42 0
1 7 44 0
1 -7 -44 0
1 7 46 0
1 -7 -46 0
1 7 49 0
1 -7 -49 0
1 7 50 0
1 -7 -50 0
1 7 52 0
1 -7 -52 0
1 7 54 0
1 -7 -54 0
1 7 57 0
1 -7 -57 0
1 7 58 0
1 -7 -58 0
1 7 59 0
1 -7 -59 0
1 7 60 0
1 -7 -60 0
1 7 61 0
1 -7 -61 0
1 7 62 0
1 -7 -62 0
1 7 64 0
1 -7 -64 0
1 8 9 0
1 -8 -9 0
1 8 17 0
1 -8 -17 0
1 8 25 0
1 -8 -25 0
1 8 26 0
1 -8 -26 0
1 8 27 0
1 -8 -27 0
1 8 29 0
1 -8 -29 0
1 8 33 0
1 -8 -33 0
1 8 41 0
1 -8 -41 0
1 8 42 0
1 -8 -42 0
1 8 43 0
1 -8 -43 0
1 8 45 0
1 -8 -45 0
1 8 49 0
1 -8 -49 0
1 8 50 0
1 -8 -50 0
1 8 51 0
1 -8 -51 0
1 8 53 0
1 -8 -53 0
1 8 57 0
1 -8 -57 0
1 8 58 0
1 -8 -58 0
1 8 59 0
1 -8 -59 0
1 8 60 0
1 -8 -60 0
1 8 61 0
1 -8 -61 0
1 8 62 0
1 -8 -62 0
1 8 63 0
1 -8 -63 0
1 9 20 0
1 -9 -20 0
1 9 22 0
1 -9 -22 0
1 9 23 0
1 -9 -23 0
1 9 24 0
1 -9 -24 0
1 9 32 0
1 -9 -32 0
1 9 36 0
1 -9 -36 0
1 9 38 0
1 -9 -38 0
1 9 39 0
1 -9 -39 0
1 9 40 0
1 -9 -40 0
1 9 48 0
1 -9 -48 0
1 9 50 0
1 -9 -50 0
1 9 51 0
1 -9 -51 0
1 9 52 0
1 -9 -52 0
1 9 53 0
1 -9 -53 0
1 9 54 0
1 -9 -54 0
1 9 55 0
1 -9 -55 0
1 9 56 0
1 -9 -56 0
1 9 60 0
1 -9 -60 0
1 9 62 0
1 -9 -62 0
1 9 63 0
1 -9 -63 0
1 9 64 0
1 -9 -64 0
1 10 19 0
1 -10 -19 0
1 10 21 0
1 -10 -21 0
1 10 23 0
1 -10 -23 0
1 10 24 0
1 -10 -24 0
1 10 31 0
1 -10 -31 0
1 10 35 0
1 -10 -35 0
1 10 37 0
1 -10 -37 0
1 10 39 0
1 -10 -39 0
1 10 40 0
1 -10 -40 0
1 10 47 0
1 -10 -47 0
1 10 49 0
1 -10 -49 0
1 10 51 0
1 -10 -51 0
1 10 52 0
1 -10 -52 0
1 10 53 0
1 -10 -53 0
1 10 54 0
1 -10 -54 0
1 10 55 0
1 -10 -55 0
1 10 56 0
1 -10 -56 0
1 10 59 0
1 -10 -59 0
1 10 61 0
1 -10 -61 0
1 10 63 0
1 -10 -63 0
1 10 64 0
1 -10 -64 0
1 11 18 0
1 -11 -18 0
1 11 21 0
1 -11 -21 0
1 11 22 0
1 -11 -22 0
1 11 24 0
1 -11 -24 0
1 11 30 0
1 -11 -30 0
1 11 34 0
1 -11 -34 0
1 11 37 0
1 -11 -37 0
1 11 38 0
1 -11 -38 0
1 11 40 0
1 -11 -40 0
1 11 46 0
1 -11 -46 0
1 11 49 0
1 -11 -49 0
1 11 50 0
1 -11 -50 0
1 11 52 0
1 -11 -52 0
1 11 53 0
1 -11 -53 0
1 11 54 0
1 -11 -54 0
1 11 55 0
1 -11 -55 0
1 11 56 0
1 -11 -56 0
1 11 58 0
1 -11 -58 0
1 11 61 0
1 -11 -61 0
1 11 62 0
1 -11 -62 0
1 11 64 0
1 -11 -64 0
1 12 17 0
1 -12 -17 0
1 12 21 0
1 -12 -21 0
1 12 22 0
1 -12 -22 0
1 12 23 0
1 -12 -23 0
1 12 29 0
1 -12 -29 0
1 12 33 0
1 -12 -33 0
1 12 37 0
1 -12 -37 0
1 12 38 0
1 -12 -38 0
1 12 39 0
1 -12 -39 0
1 12 45 0
1 -12 -45 0
1 12 49 0
1 -12 -49 0
1 12 50 0
1 -12 -50 0
1 12 51 0
1 -12 -51 0
1 12 53 0
1 -12 -53 0
1 12 54 0
1 -12 -54 0
1 12 55 0
1 -12 -55 0
1 12 56 0
1 -12 -56 0
1 12 57 0
1 -12 -57 0
1 12 61 0
1 -12 -61 0
1 12 62 0
1 -12 -62 0
1 12 63 0
1 -12 -63 0
1 13 18 0
1 -13 -18 0
1 13 19 0
1 -13 -19 0
1 13 20 0
1 -13 -20 0
1 13 24 0
1 -13 -24 0
1 13 28 0
1 -13 -28 0
1 13 34 0
1 -13 -34 0
1 13 35 0
1 -13 -35 0
1 13 36 0
1 -13 -36 0
1 13 40 0
1 -13 -40 0
1 13 44 0
1 -13 -44 0
1 13 49 0
1 -13 -49 0
1 13 50 0
1 -13 -50 0
1 13 51 0
1 -13 -51 0
1 13 52 0
1 -13 -52 0
1 13 54 0
1 -13 -54 0
1 13 55 0
1 -13 -55 0
1 13 56 0
1 -13 -56 0
1 13 58 0
1 -13 -58 0
1 13 59 0
1 -13 -59 0
1 13 60 0
1 -13 -60 0
1 13 64 0
1 -13 -64 0
1 14 17 0
1 -14 -17 0
1 14 19 0
1 -14 -19 0
1 14 20 0
1 -14 -20 0
1 14 23 0
1 -14 -23 0
1 14 27 0
1 -14 -27 0
1 14 33 0
1 -14 -33 0
1 14 35 0
1 -14 -35 0
1 14 36 0
1 -14 -36 0
1 14 39 0
1 -14 -39 0
1 14 43 0
1 -14 -43 0
1 14 49 0
1 -14 -49 0
1 14 50 0
1 -14 -50 0
1 14 51 0
1 -14 -51 0
1 14 52 0
1 -14 -52 0
1 14 53 0
1 -14 -53 0
1 14 55 0
1 -14 -55 0
1 14 56 0
1 -14 -56 0
1 14 57 0
1 -14 -57 0
1 14 59 0
1 -14 -59 0
1 14 60 0
1 -14 -60 0
1 14 63 0
1 -14 -63 0
1 15 17 0
1 -15 -17 0
1 15 18 0
1 -15 -18 0
1 15 20 0
1 -15 -20 0
1 15 22 0
1 -15 -22 0
1 15 26 0
1 -15 -26 0
1 15 33 0
1 -15 -33 0
1 15 34 0
1 -15 -34 0
1 15 36 0
1 -15 -36 0
1 15 38 0
1 -15 -38 0
1 15 42 0
1 -15 -42 0
1 15 49 0
1 -15 -49 0
1 15 50 0
1 -15 -50 0
1 15 51 0
1 -15 -51 0
1 15 52 0
1 -15 -52 0
1 15 53 0
1 -15 -53 0
1 15 54 0
1 -15 -54 0
1 15 56 0
1 -15 -56 0
1 15 57 0
1 -15 -57 0
1 15 58 0
1 -15 -58 0
1 15 60 0
1 -15 -60 0
1 15 62 0
1 -15 -62 0
1 16 17 0
1 -16 -17 0
1 16 18 0
1 -16 -18 0
1 16 19 0
1 -16 -19 0
1 16 21 0
1 -16 -21 0
1 16 25 0
1 -16 -25 0
1 16 33 0
1 -16 -33 0
1 16 34 0
1 -16 -34 0
1 16 35 0
1 -16 -35 0
1 16 37 0
1 -16 -37 0
1 16 41 0
1 -16 -41 0
1 16 49 0
1 -16 -49 0
1 16 50 0
1 -16 -50 0
1 16 51 0
1 -16 -51 0
1 16 52 0
1 -16 -52 0
1 16 53 0
1 -16 -53 0
1 16 54 0
1 -16 -54 0
1 16 55 0
1 -16 -55 0
1 16 57 0
1 -16 -57 0
1 16 58 0
1 -16 -58 0
1 16 59 0
1 -16 -59 0
1 16 61 0
1 -16 -61 0
1 17 32 0
1 -17 -32 0
1 17 36 0
1 -17 -36 0
1 17 38 0
1 -17 -38 0
1 17 39 0
1 -17 -39 0
1 17 40 0
1 -17 -40 0
1 17 42 0
1 -17 -42 0
1 17 43 0
1 -17 -43 0
1 17 44 0
1 -17 -44 0
1 17 45 0
1 -17 -45 0
1 17 46 0
1 -17 -46 0
1 17 47 0
1 -17 -47 0
1 17 48 0
1 -17 -48 0
1 17 56 0
1 -17 -56 0
1 17 60 0
1 -17 -60 0
1 17 62 0
1 -17 -62 0
1 17 63 0
1 -17 -63 0
1 17 64 0
1 -17 -64 0
1 18 31 0
1 -18 -31 0
1 18 35 0
1 -18 -35 0
1 18 37 0
1 -18 -37 0
1 18 39 0
1 -18 -39 0
1 18 40 0
1 -18 -40 0
1 18 41 0
1 -18 -41 0
1 18 43 0
1 -18 -43 0
1 18 44 0
1 -18 -44 0
1 18 45 0
1 -18 -45 0
1 18 46 0
1 -18 -46 0
1 18 47 0
1 -18 -47 0
1 18 48 0
1 -18 -48 0
1 18 55 0
1 -18 -55 0
1 18 59 0
1 -18 -59 0
1 18 61 0
1 -18 -61 0
1 18 63 0
1 -18 -63 0
1 18 64 0
1 -18 -64 0
1 19 30 0
1 -19 -30 0
1 19 34 0
1 -19 -34 0
1 19 37 0
1 -19 -37 0
1 19 38 0
1 -19 -38 0
1 19 40 0
1 -19 -40 0
1 19 41 0
1 -19 -41 0
1 19 42 0
1 -19 -42 0
1 19 44 0
1 -19 -44 0
1 19 45 0
1 -19 -45 0
1 19 46 0
1 -19 -46 0
1 19 47 0
1 -19 -47 0
1 19 48 0
1 -19 -48 0
1 19 54 0
1 -19 -54 0
1 19 58 0
1 -19 -58 0
1 19 61 0
1 -19 -61 0
1 19 62 0
1 -19 -62 0
1 19 64 0
1 -19 -64 0
1 20 29 0
1 -20 -29 0
1 20 33 0
1 -20 -33 0
1 20 37 0
1 -20 -37 0
1 20 38 0
1 -20 -38 0
1 20 39 0
1 -20 -39 0
1 20 41 0
1 -20 -41 0
1 20 42 0
1 -20 -42 0
1 20 43 0
1 -20 -43 0
1 20 45 0
1 -20 -45 0
1 20 46 0
1 -20 -46 0
1 20 47 0
1 -20 -47 0
1 20 48 0
1 -20 -48 0
1 20 53 0
1 -20 -53 0
1 20 57 0
1 -20 -57 0
1 20 61 0
1 -20 -61 0
1 20 62 0
1 -20 -62 0
1 20 63 0
1 -20 -63 0
1 21 28 0
1 -21 -28 0
1 21 34 0
1 -21 -34 0
1 21 35 0
1 -21 -35 0
1 21 36 0
1 -21 -36 0
1 21 40 0
1 -21 -40 0
1 21 41 0
1 -21 -41 0
1 21 42 0
1 -21 -42 0
1 21 43 0
1 -21 -43 0
1 21 44 0
1 -21 -44 0
1 21 46 0
1 -21 -46 0
1 21 47 0
1 -21 -47 0
1 21 48 0
1 -21 -48 0
1 21 52 0
1 -21 -52 0
1 21 58 0
1 -21 -58 0
1 21 59 0
1 -21 -59 0
1 21 60 0
1 -21 -60 0
1 21 64 0
1 -21 -64 0
1 22 27 0
1 -22 -27 0
1 22 33 0
1 -22 -33 0
1 22 35 0
1 -22 -35 0
1 22 36 0
1 -22 -36 0
1 22 39 0
1 -22 -39 0
1 22 41 0
1 -22 -41 0
1 22 42 0
1 -22 -42 0
1 22 43 0
1 -22 -43 0
1 22 44 0
1 -22 -44 0
1 22 45 0
1 -22 -45 0
1 22 47 0
1 -22 -47 0
1 22 48 0
1 -22 -48 0
1 22 51 0
1 -22 -51 0
1 22 57 0
1 -22 -57 0
1 22 59 0
1 -22 -59 0
1 22 60 0
1 -22 -60 0
1 22 63 0
1 -22 -63 0
1 23 26 0
1 -23 -26 0
1 23 33 0
1 -23 -33 0
1 23 34 0
1 -23 -34 0
1 23 36 0
1 -23 -36 0
1 23 38 0
1 -23 -38 0
1 23 41 0
1 -23 -41 0
1 23 42 0
1 -23 -42 0
1 23 43 0
1 -23 -43 0
1 23 44 0
1 -23 -44 0
1 23 45 0
1 -23 -45 0
1 23 46 0
1 -23 -46 0
1 23 48 0
1 -23 -48 0
1 23 50 0
1 -23 -50 0
1 23 57 0
1 -23 -57 0
1 23 58 0
1 -23 -58 0
1 23 60 0
1 -23 -60 0
1 23 62 0
1 -23 -62 0
1 24 25 0
1 -24 -25 0
1 24 33 0
1 -24 -33 0
1 24 34 0
1 -24 -34 0
1 24 35 0
1 -24 -35 0
1 24 37 0
1 -24 -37 0
1 24 41 0
1 -24 -41 0
1 24 42 0
1 -24 -42 0
1 24 43 0
1 -24 -43 0
1 24 44 0
1 -24 -44 0
1 24 45 0
1 -24 -45 0
1 24 46 0
1 -24 -46 0
1 24 47 0
1 -24 -47 0
1 24 49 0
1 -24 -49 0
1 24 57 0
1 -24 -57 0
1 24 58 0
1 -24 -58 0
1 24 59 0
1 -24 -59 0
1 24 61 0
1 -24 -61 0
1 25 34 0
1 -25 -34 0
1 25 35 0
1 -25 -35 0
1 25 36 0
1 -25 -36 0
1 25 37 0
1 -25 -37 0
1 25 38 0
1 -25 -38 0
1 25 39 0
1 -25 -39 0
1 25 40 0
1 -25 -40 0
1 25 44 0
1 -25 -44 0
1 25 46 0
1 -25 -46 0
1 25 47 0
1 -25 -47 0
1 25 48 0
1 -25 -48 0
1 25 52 0
1 -25 -52 0
1 25 54 0
1 -25 -54 0
1 25 55 0
1 -25 -55 0
1 25 56 0
1 -25 -56 0
1 25 64 0
1 -25 -64 0
1 26 33 0
1 -26 -33 0
1 26 35 0
1 -26 -35 0
1 26 36 0
1 -26 -36 0
1 26 37 0
1 -26 -37 0
1 26 38 0
1 -26 -38 0
1 26 39 0
1 -26 -39 0
1 26 40 0
1 -26 -40 0
1 26 43 0
1 -26 -43 0
1 26 45 0
1 -26 -45 0
1 26 47 0
1 -26 -47 0
1 26 48 0
1 -26 -48 0
1 26 51 0
1 -26 -51 0
1 26 53 0
1 -26 -53 0
1 26 55 0
1 -26 -55 0
1 26 56 0
1 -26 -56 0
1 26 63 0
1 -26 -63 0
1 27 33 0
1 -27 -33 0
1 27 34 0
1 -27 -34 0
1 27 36 0
1 -27 -36 0
1 27 37 0
1 -27 -37 0
1 27 38 0
1 -27 -38 0
1 27 39 0
1 -27 -39 0
1 27 40 0
1 -27 -40 0
1 27 42 0
1 -27 -42 0
1 27 45 0
1 -27 -45 0
1 27 46 0
1 -27 -46 0
1 27 48 0
1 -27 -48 0
1 27 50 0
1 -27 -50 0
1 27 53 0
1 -27 -53 0
1 27 54 0
1 -27 -54 0
1 27 56 0
1 -27 -56 0
1 27 62 0
1 -27 -62 0
1 28 33 0
1 -28 -33 0
1 28 34 0
1 -28 -34 0
1 28 35 0
1 -28 -35 0
1 28 37 0
1 -28 -37 0
1 28 38 0
1 -28 -38 0
1 28 39 0
1 -28 -39 0
1 28 40 0
1 -28 -40 0
1 28 41 0
1 -28 -41 0
1 28 45 0
1 -28 -45 0
1 28 46 0
1 -28 -46 0
1 28 47 0
1 -28 -47 0
1 28 49 0
1 -28 -49 0
1 28 53 0
1 -28 -53 0
1 28 54 0
1 -28 -54 0
1 28 55 0
1 -28 -55 0
1 28 61 0
1 -28 -61 0
1 29 33 0
1 -29 -33 0
1 29 34 0
1 -29 -34 0
1 29 35 0
1 -29 -35 0
1 29 36 0
1 -29 -36 0
1 29 38 0
1 -29 -38 0
1 29 39 0
1 -29 -39 0
1 29 40 0
1 -29 -40 0
1 29 42 0
1 -29 -42 0
1 29 43 0
1 -29 -43 0
1 29 44 0
1 -29 -44 0
1 29 48 0
1 -29 -48 0
1 29 50 0
1 -29 -50 0
1 29 51 0
1 -29 -51 0
1 29 52 0
1 -29 -52 0
1 29 56 0
1 -29 -56 0
1 29 60 0
1 -29 -60 0
1 30 33 0
1 -30 -33 0
1 30 34 0
1 -30 -34 0
1 30 35 0
1 -30 -35 0
1 30 36 0
1 -30 -36 0
1 30 37 0
1 -30 -37 0
1 30 39 0
1 -30 -39 0
1 30 40 0
1 -30 -40 0
1 30 41 0
1 -30 -41 0
1 30 43 0
1 -30 -43 0
1 30 44 0
1 -30 -44 0
1 30 47 0
1 -30 -47 0
1 30 49 0
1 -30 -49 0
1 30 51 0
1 -30 -51 0
1 30 52 0
1 -30 -52 0
1 30 55 0
1 -30 -55 0
1 30 59 0
1 -30 -59 0
1 31 33 0
1 -31 -33 0
1 31 34 0
1 -31 -34 0
1 31 35 0
1 -31 -35 0
1 31 36 0
1 -31 -36 0
1 31 37 0
1 -31 -37 0
1 31 38 0
1 -31 -38 0
1 31 40 0
1 -31 -40 0
1 31 41 0
1 -31 -41 0
1 31 42 0
1 -31 -42 0
1 31 44 0
1 -31 -44 0
1 31 46 0
1 -31 -46 0
1 31 49 0
1 -31 -49 0
1 31 50 0
1 -31 -50 0
1 31 52 0
1 -31 -52 0
1 31 54 0
1 -31 -54 0
1 31 58 0
1 -31 -58 0
1 32 33 0
1 -32 -33 0
1 32 34 0
1 -32 -34 0
1 32 35 0
1 -32 -35 0
1 32 36 0
1 -32 -36 0
1 32 37 0
1 -32 -37 0
1 32 38 0
1 -32 -38 0
1 32 39 0
1 -32 -39 0
1 32 41 0
1 -32 -41 0
1 32 42 0
1 -32 -42 0
1 32 43 0
1 -32 -43 0
1 32 45 0
1 -32 -45 0
1 32 49 0
1 -32 -49 0
1 32 50 0
1 -32 -50 0
1 32 51 0
1 -32 -51 0
1 32 53 0
1 -32 -53 0
1 32 57 0
1 -32 -57 0
1 33 48 0
1 -33 -48 0
1 33 56 0
1 -33 -56 0
1 33 60 0
1 -33 -60 0
1 33 62 0
1 -33 -62 0
1 33 63 0
1 -33 -63 0
1 33 64 0
1 -33 -64 0
1 34 47 0
1 -34 -47 0
1 34 55 0
1 -34 -55 0
1 34 59 0
1 -34 -59 0
1 34 61 0
1 -34 -61 0
1 34 63 0
1 -34 -63 0
1 34 64 0
1 -34 -64 0
1 35 46 0
1 -35 -46 0
1 35 54 0
1 -35 -54 0
1 35 58 0
1 -35 -58 0
1 35 61 0
1 -35 -61 0
1 35 62 0
1 -35 -62 0
1 35 64 0
1 -35 -64 0
1 36 45 0
1 -36 -45 0
1 36 53 0
1 -36 -53 0
1 36 57 0
1 -36 -57 0
1 36 61 0
1 -36 -61 0
1 36 62 0
1 -36 -62 0
1 36 63 0
1 -36 -63 0
1 37 44 0
1 -37 -44 0
1 37 52 0
1 -37 -52 0
1 37 58 0
1 -37 -58 0
1 37 59 0
1 -37 -59 0
1 37 60 0
1 -37 -60 0
1 37 64 0
1 -37 -64 0
1 38 43 0
1 -38 -43 0
1 38 51 0
1 -38 -51 0
1 38 57 0
1 -38 -57 0
1 38 59 0
1 -38 -59 0
1 38 60 0
1 -38 -60 0
1 38 63 0
1 -38 -63 0
1 39 42 0
1 -39 -42 0
1 39 50 0
1 -39 -50 0
1 39 57 0
1 -39 -57 0
1 39 58 0
1 -39 -58 0
1 39 60 0
1 -39 -60 0
1 39 62 0
1 -39 -62 0
1 40 41 0
1 -40 -41 0
1 40 49 0
1 -40 -49 0
1 40 57 0
1 -40 -57 0
1 40 58 0
1 -40 -58 0
1 40 59 0
1 -40 -59 0
1 40 61 0
1 -40 -61 0
1 41 52 0
1 -41 -52 0
1 41 54 0
1 -41 -54 0
1 41 55 0
1 -41 -55 0
1 41 56 0
1 -41 -56 0
1 41 64 0
1 -41 -64 0
1 42 51 0
1 -42 -51 0
1 42 53 0
1 -42 -53 0
1 42 55 0
1 -42 -55 0
1 42 56 0
1 -42 -56 0
1 42 63 0
1 -42 -63 0
1 43 50 0
1 -43 -50 0
1 43 53 0
1 -43 -53 0
1 43 54 0
1 -43 -54 0
1 43 56 0
1 -43 -56 0
1 43 62 0
1 -43 -62 0
1 44 49 0
1 -44 -49 0
1 44 53 0
1 -44 -53 0
1 44 54 0
1 -44 -54 0
1 44 55 0
1 -44 -55 0
1 44 61 0
1 -44 -61 0
1 45 50 0
1 -45 -50 0
1 45 51 0
1 -45 -51 0
1 45 52 0
1 -45 -52 0
1 45 56 0
1 -45 -56 0
1 45 60 0
1 -45 -60 0
1 46 49 0
1 -46 -49 0
1 46 51 0
1 -46 -51 0
1 46 52 0
1 -46 -52 0
1 46 55 0
1 -46 -55 0
1 46 59 0
1 -46 -59 0
1 47 49 0
1 -47 -49 0
1 47 50 0
1 -47 -50 0
1 47 52 0
1 -47 -52 0
1 47 54 0
1 -47 -54 0
1 47 58 0
1 -47 -58 0
1 48 49 0
1 -48 -49 0
1 48 50 0
1 -48 -50 0
1 48 51 0
1 -48 -51 0
1 48 53 0
1 -48 -53 0
1 48 57 0
1 -48 -57 0
1 49 64 0
1 -49 -64 0
1 50 63 0
1 -50 -63 0
1 51 62 0
1 -51 -62 0
1 52 61 0
1 -52 -61 0
1 53 60 0
1 -53 -60 0
1 54 59 0
1 -54 -59 0
1 55 58 0
1 -55 -58 0
1 56 57 0
1 -56 -57 0
